
  32    4
  10   10   10   10

   0   0   0   0   0   3 2 4 6 
   8   1   0   1   1   2 10 3 
   8   5   1   0   5   3 11 9 5 
   4   7   6   0   4   2 9 5 
   8   2   4   1   0   2 31 7 
   8   0   4   5   7   2 31 7 
   9   9   3   2   0   3 18 15 8 
   2   0   4   5   6   3 20 17 12 
   3   0   2   5   4   6 31 30 22 20 17 16 
   4   3   1   0   4   3 20 17 13 
   6   2   0   3   8   4 20 19 18 14 
   2   0   8   2   2   1 13 
   6   0   7   3   3   3 30 27 14 
   7   3   6   5   0   2 29 16 
   2   0   3   6   1   3 28 22 21 
   8   4   4   0   2   3 28 24 21 
   7   4   0   4   7   2 29 19 
   1   2   3   3   0   4 30 27 26 23 
   8   5   0   3   6   3 27 26 23 
   3   0   4   6   3   1 21 
   8   0   4   6   3   2 26 23 
   6   0   8   5   2   2 27 25 
   9   6   2   0   4   1 25 
   8   4   2   2   0   1 26 
   5   3   5   4   0   1 32
   1   4   5   5   0   1 32
   6   0   4   3   3   1 32
   9   0   4   7   5   1 32
   5   0   2   6   5   1 32
   4   4   3   0   5   1 32
   6   4   5   0   2   1 32
   0   0   0   0   0   0 
